p td 80 120
0 79
1 26
1 70
2 16
3 36
3 5
3 58
3 12
3 33
5 75
5 55
5 70
5 35
5 56
5 44
6 46
6 7
6 58
6 32
7 11
8 11
8 26
8 18
8 36
8 71
9 57
9 22
9 65
10 65
11 30
11 48
12 27
14 56
14 20
15 77
15 62
15 69
15 60
16 51
16 53
17 71
17 22
18 25
18 51
18 35
18 68
18 46
20 68
20 41
21 58
21 45
21 76
21 41
22 69
22 42
23 39
23 33
24 27
24 69
24 48
25 37
25 74
25 45
26 63
27 46
28 47
28 49
28 79
29 48
29 45
30 65
30 46
30 41
31 61
31 72
32 57
34 59
34 50
34 74
34 35
35 74
36 43
37 71
37 42
37 60
38 61
38 67
38 69
42 71
43 79
43 49
44 63
44 58
44 66
45 68
46 76
46 47
46 77
47 67
47 61
47 64
49 74
49 59
50 76
50 70
51 56
52 60
53 78
53 56
55 71
56 66
57 69
57 74
59 77
59 66
62 73
63 77
64 73
71 77
73 75
